c description: Random 3-CNF over 15 variables and 65 clauses
c generator: CNFgen (0.9.0)
c copyright: (C) 2012-2020 Massimo Lauria <massimo.lauria@uniroma1.it>
c url: https://massimolauria.net/cnfgen
c
p cnf 15 65
-6 13 15 0
-3 7 14 0
-8 9 -12 0
-2 -7 -13 0
-4 -5 -14 0
-2 11 -14 0
-6 10 -13 0
-5 -9 10 0
-3 10 -15 0
9 12 -14 0
5 -9 15 0
-3 -4 12 0
3 -11 -13 0
-2 8 -11 0
-7 9 -15 0
-3 4 15 0
1 7 9 0
6 12 -14 0
-7 9 -13 0
-2 -10 12 0
-1 12 13 0
3 -6 12 0
4 -7 -10 0
-1 -3 -15 0
-4 -10 13 0
-11 12 -13 0
11 14 -15 0
-5 -8 9 0
7 9 13 0
-4 8 14 0
-2 -4 6 0
-2 -3 13 0
1 7 10 0
1 -11 -15 0
-1 2 11 0
3 -4 5 0
-8 -9 -13 0
4 11 12 0
2 -4 -8 0
1 7 -11 0
2 13 15 0
-7 -11 -12 0
-6 -7 -15 0
-2 8 13 0
1 8 -11 0
-4 -5 12 0
-1 -4 8 0
4 -9 -12 0
-9 10 11 0
12 -13 -14 0
-4 11 15 0
1 -2 14 0
5 -8 -10 0
11 -12 14 0
4 -6 -14 0
-4 12 13 0
3 -4 11 0
2 8 -12 0
1 -2 4 0
-4 8 -11 0
-1 -10 -12 0
1 3 -11 0
5 8 -12 0
-1 9 -12 0
2 3 5 0